3 3 2
25 0 26 2 35 0 10 1 36 2 19 0 1 2 18 1 14 2 1 1 40 0 6 1 26 0 42 1 9 2 45 0 3 2 23 0 29 1 28 0 25 2 43 1 18 0 25 1 14 2 16 
25 0 39 1 24 2 37 0 23 2 27 1 16 0 41 1 16 2 34 1 30 0 32 2 2 1 8 2 25 0 38 1 11 2 45 1 5 2 23 0 3 2 20 1 25 2 8 0 18 1 29 
25 0 16 2 3 1 10 2 9 0 41 2 3 0 8 2 8 0 7 2 6 0 15 1 8 0 39 1 45 0 2 2 33 0 41 2 19 0 15 1 46 2 16 1 43 0 48 1 4 0 40 

-------------
